webassembly/ejemplos_dzn/folder5_json_53.dzn
TERM = { '.', 's(2)', 'in_1', 'local_1', 'in_2', 'in_3', 's(1)', 's(0)', 'in_0'};
null = '.';
s = 5;
n = 9;
ndeps = 2;
max_registers_sz = 4;
NR = 1;
registers = [|'local_1', 's(1)'|];
dependencies = [|'i32.load8_u_1', 'call[function_index(0)]_4', |'i32.load16_u_3', 'call[function_index(0)]_4'|];
GET_ENUM = { GET1, GET2, GET3, GET4, GET5};
SET_ENUM = { SET1, SET2, SET3, SET4, SET5};
TEE_ENUM = { TEE1, TEE2, TEE3, TEE4, TEE5};
N = 4;
OP = { 'call[function_index(0)]_4', 'i32.add_0', 'i32.load8_u_1', 'i32.load16_u_3' };
in_ops = [3, 2, 1, 1 ];
out_ops = [0, 1, 1, 1 ];
in1 = ['s(2)', 'in_0', 's(0)', 's(1)' ];
in2 = ['in_2', 'in_1', '.', '.' ];
in3 = ['in_3', '.', '.', '.' ];
out1 = ['.', 's(0)', 's(1)', 's(2)' ];
out2 = ['.', '.', '.', '.' ];
out3 = ['.', '.', '.', '.' ];
comm = [false, true, false, false ];
gas = [1, 1, 1, 1 ];
sz = [1, 1, 1, 1 ];
stor = [true, false, false, false ];
lb = [ 1, 1, 1, 1 ];
ub = [ 5, 5, 5, 5 ];
startstack = [ 'in_0', 'in_1', 'in_2', 'in_3', null, null, null, null, null ];
endstack = [ null, null, null, null, null, null, null, null, null ];
